2134835
0,71,36,191,33,32,89,170,169,20,49,54,39,80,101,132,154,111,35,6,150,129,88,8,3,223,9,64,45,213,136,144,90,165,95,183,100,115,168,214,195,106,25,61,27,178,143,222,216,202,37,105,201,104,189,140,221,81,211,171,203,51,78,220,85,192,84,112,176,164,109,197,68,69,72,41,97,118,208,30,73,156,146,126,117,82,209,182,116,93,107,86,34,26,19,15,22,177,7,2,14,13,113,217,135,194,163,138,205,123,1,5,63,173,153,18,21,77,204,160,74,226,103,65,52,91,55,53,215,99,98,179,122,131,60,130,24,28,94,166,187,40,23,127,76,120,157,145,11,87,108,152,128,141,149,218,174,17,42,159,151,121,200,199,175,227,185,186,102,181,180,172,147,225,198,48,70,66,158,184,188,162,206,38,31,228,161,155,58,229,44,212,148,125,57,79,114,167,92,83,142,29,43,67,210,59,137,96,75,56,119,219,224,12,193,196,46,124,190,16,4,133,10,47,110,50,207,62,139,134,0